Reading model...
...model read.
creating competitive generators file...
...competitive generators recorded.
Loading data...
.. real-time data read.
Compiling instance...
...instance created.
Creating Offer Mitigation (model will solve as dispatch if TRUE)...
...storage offer mitigation file created
Converting model to MPEC...
...converted
NOTE: initial MIP solve with only storage competitive to get feasible solution
Solving...

Welcome to IBM(R) ILOG(R) CPLEX(R) Interactive Optimizer 12.10.0.0
  with Simplex, Mixed Integer & Barrier Optimizers
5725-A06 5725-A29 5724-Y48 5724-Y49 5724-Y54 5724-Y55 5655-Y21
Copyright IBM Corp. 1988, 2019.  All Rights Reserved.

Type 'help' for a list of available commands.
Type 'help' followed by a command name for more
information on commands.

CPLEX> Logfile 'cplex.log' closed.
Logfile 'C:\Users\wenmi\Desktop\competitiveMPEC\logs\tmps6zbuc9u.cplex.log' open.
CPLEX> New value for parallel optimization mode: -1
CPLEX> New value for mixed integer optimality gap tolerance: 0.05
CPLEX> New value for deterministic time limit in ticks: 100000
CPLEX> Problem 'C:\Users\wenmi\Desktop\competitiveMPEC\logs\tmp0vt7oqml.pyomo.lp' read.
Read time = 0.31 sec. (27.44 ticks)
CPLEX> Problem name         : C:\Users\wenmi\Desktop\competitiveMPEC\logs\tmp0vt7oqml.pyomo.lp
Objective sense      : Maximize
Variables            :  107779  [Nneg: 1,  Box: 44054,  Free: 8928,
                                 Binary: 54796]
Objective nonzeros   :   19154
Linear constraints   :  246995  [Less: 82866,  Greater: 118424,  Equal: 45705]
  Nonzeros           :  582461
  RHS nonzeros       :  136272

Variables            : Min LB: -5000.000        Max UB: 1000000.       
Objective nonzeros   : Min   : 0.1666667        Max   : 2500.000       
Linear constraints   :
  Nonzeros           : Min   : 0.1666667        Max   : 1000000.       
  RHS nonzeros       : Min   : 0.1666667        Max   : 1000000.       
CPLEX> Version identifier: 12.10.0.0 | 2019-11-26 | 843d4de2ae
CPXPARAM_Parallel                                -1
CPXPARAM_DetTimeLimit                            100000
CPXPARAM_MIP_Tolerances_MIPGap                   0.050000000000000003
Tried aggregator 3 times.
MIP Presolve eliminated 173083 rows and 34052 columns.
MIP Presolve added 7727 rows and 0 columns.
MIP Presolve modified 52250 coefficients.
Aggregator did 26057 substitutions.
Reduced MIP has 55582 rows, 47286 columns, and 151852 nonzeros.
Reduced MIP has 18749 binaries, 0 generals, 0 SOSs, and 0 indicators.
Presolve time = 0.34 sec. (334.52 ticks)
Probing fixed 714 vars, tightened 8581 bounds.
Probing time = 0.09 sec. (17.75 ticks)
Tried aggregator 2 times.
Detecting symmetries...
MIP Presolve eliminated 1633 rows and 1456 columns.
MIP Presolve modified 7138 coefficients.
Aggregator did 80 substitutions.
Reduced MIP has 53869 rows, 45750 columns, and 146795 nonzeros.
Reduced MIP has 18030 binaries, 0 generals, 0 SOSs, and 0 indicators.
Presolve time = 0.19 sec. (277.63 ticks)
Probing fixed 5 vars, tightened 131 bounds.
Probing time = 0.24 sec. (23.11 ticks)
Clique table members: 93364.
MIP emphasis: balance optimality and feasibility.
MIP search method: dynamic search.
Parallel mode: opportunistic, using up to 16 threads.
Root relaxation solution time = 0.83 sec. (2330.30 ticks)

        Nodes                                         Cuts/
   Node  Left     Objective  IInf  Best Integer    Best Bound    ItCnt     Gap

      0     0      185.7349    42                    185.7349    11111         
      0     0      185.7349    42                    Cuts: 62    11135         
*     0+    0                           84.6757      185.7349           119.35%
      0     0      185.7349    42       84.6757       Cuts: 9    11145  119.35%
*     0+    0                          128.9993      185.7349            43.98%
      0     0      185.7349    42      128.9993    MIRcuts: 8    11151   43.98%
*     0+    0                          154.1479      185.7349            20.49%
      0     3      182.7313     3      154.1479      182.7313    11160   18.54%
Elapsed time = 4.80 sec. (5963.93 ticks, tree = 0.02 MB, solutions = 3)

Implied bound cuts applied:  2
Flow cuts applied:  36
Mixed integer rounding cuts applied:  7
Gomory fractional cuts applied:  22

Root node processing (before b&c):
  Real time             =    4.19 sec. (5824.36 ticks)
Parallel b&c, 16 threads:
  Real time             =    0.67 sec. (231.76 ticks)
  Sync time (average)   =    0.42 sec.
  Wait time (average)   =    0.00 sec.
                          ------------
Total (root+branch&cut) =    4.86 sec. (6056.12 ticks)

Solution pool: 3 solutions saved.

MIP - Integer optimal, tolerance (0.05/1e-06):  Objective =  1.5414790361e+02
Current MIP best bound =  1.5758262320e+02 (gap = 3.43472, 2.23%)
Solution time =    4.86 sec.  Iterations = 11180  Nodes = 9 (1)
Deterministic time = 6056.42 ticks  (1246.18 ticks/sec)

CPLEX> Incumbent solution written to file 'C:\Users\wenmi\Desktop\competitiveMPEC\logs\tmpq876nctk.cplex.sol'.
CPLEX> NOTE: no warmstart specified for MIP iteration, default behavior is true
NOTE: resolving with all competitive generators using storage-only solution to warmstart
Solving...

Welcome to IBM(R) ILOG(R) CPLEX(R) Interactive Optimizer 12.10.0.0
  with Simplex, Mixed Integer & Barrier Optimizers
5725-A06 5725-A29 5724-Y48 5724-Y49 5724-Y54 5724-Y55 5655-Y21
Copyright IBM Corp. 1988, 2019.  All Rights Reserved.

Type 'help' for a list of available commands.
Type 'help' followed by a command name for more
information on commands.

CPLEX> Logfile 'cplex.log' closed.
Logfile 'C:\Users\wenmi\Desktop\competitiveMPEC\logs\tmp7bq2lgtt.cplex.log' open.
CPLEX> New value for parallel optimization mode: -1
CPLEX> New value for mixed integer optimality gap tolerance: 0.05
CPLEX> New value for deterministic time limit in ticks: 100000
CPLEX> Problem 'C:\Users\wenmi\Desktop\competitiveMPEC\logs\tmpmqrwo6xv.pyomo.lp' read.
Read time = 0.33 sec. (27.48 ticks)
CPLEX> MIP start file 'C:\Users\wenmi\Desktop\competitiveMPEC\logs\tmp8fvuz94z.cplex.mst' read.
CPLEX> Problem name         : C:\Users\wenmi\Desktop\competitiveMPEC\logs\tmpmqrwo6xv.pyomo.lp
Objective sense      : Maximize
Variables            :  109219  [Nneg: 1,  Box: 45494,  Free: 8928,
                                 Binary: 54796]
Objective nonzeros   :   20546
Linear constraints   :  246995  [Less: 82866,  Greater: 118424,  Equal: 45705]
  Nonzeros           :  582461
  RHS nonzeros       :  136272

Variables            : Min LB: -5000.000        Max UB: 1000000.       
Objective nonzeros   : Min   : 0.1666667        Max   : 2500.000       
Linear constraints   :
  Nonzeros           : Min   : 0.1666667        Max   : 1000000.       
  RHS nonzeros       : Min   : 0.1666667        Max   : 1000000.       
CPLEX> Version identifier: 12.10.0.0 | 2019-11-26 | 843d4de2ae
CPXPARAM_Parallel                                -1
CPXPARAM_DetTimeLimit                            100000
CPXPARAM_MIP_Tolerances_MIPGap                   0.050000000000000003
1 of 1 MIP starts provided solutions.
MIP start 'm1' defined initial solution with objective 940.5958.
Tried aggregator 3 times.
MIP Presolve eliminated 173083 rows and 35492 columns.
MIP Presolve added 7727 rows and 0 columns.
MIP Presolve modified 52250 coefficients.
Aggregator did 26057 substitutions.
Reduced MIP has 55582 rows, 47286 columns, and 151852 nonzeros.
Reduced MIP has 18749 binaries, 0 generals, 0 SOSs, and 0 indicators.
Presolve time = 0.34 sec. (335.25 ticks)
Probing fixed 714 vars, tightened 8581 bounds.
Probing time = 0.09 sec. (17.75 ticks)
Tried aggregator 2 times.
Detecting symmetries...
MIP Presolve eliminated 1633 rows and 1456 columns.
MIP Presolve modified 7138 coefficients.
Aggregator did 80 substitutions.
Reduced MIP has 53869 rows, 45750 columns, and 146795 nonzeros.
Reduced MIP has 18030 binaries, 0 generals, 0 SOSs, and 0 indicators.
Presolve time = 0.17 sec. (277.64 ticks)
Probing fixed 5 vars, tightened 101 bounds.
Probing time = 0.19 sec. (21.13 ticks)
Clique table members: 93171.
MIP emphasis: balance optimality and feasibility.
MIP search method: dynamic search.
Parallel mode: opportunistic, using up to 16 threads.
Root relaxation solution time = 0.81 sec. (2453.49 ticks)

        Nodes                                         Cuts/
   Node  Left     Objective  IInf  Best Integer    Best Bound    ItCnt     Gap

*     0+    0                          940.5958   1.31341e+07              --- 
      0     0     1477.0552    80      940.5958     1477.0552    12281   57.03%
      0     0     1477.0552    80      940.5958     Cuts: 212    12369   57.03%
      0     0     1476.2083    80      940.5958     Cuts: 100    12404   56.94%
      0     0     1468.1465    80      940.5958      Cuts: 90    12425   56.09%
      0     0     1468.1465    80      940.5958      Cuts: 26    12437   56.09%
      0     0     1468.1465    80      940.5958       Cuts: 3    12438   56.09%
      0     0     1468.1465    80      940.5958      Cuts: 76    12459   56.09%
      0     3        cutoff            940.5958     1459.2997    12501   55.15%
Elapsed time = 6.03 sec. (7605.77 ticks, tree = 0.02 MB, solutions = 1)
    119    28     1007.7586     3      940.5958     1445.4682    12826   53.68%
    331    61     1292.6891     4      940.5958     1445.4682    12945   53.68%
    511   113     1007.7586     4      940.5958     1445.4682    13126   53.68%
    703   394     1322.9377     4     1075.6113     1445.4682    14152   34.39%
    921   222     1186.9420     3     1075.6113     1445.4682    13472   34.39%
   1127   420     1322.9377     4     1075.6113     1445.4682    13973   34.39%
   1384   433     1178.7566     2     1075.6113     1445.4682    14249   34.39%
*  1483   749      integral     0     1078.2161     1445.4682    15766   34.06%
*  1532   462      integral     0     1094.6602     1445.4682    14436   32.05%
   2320   833     1290.8145     8     1288.2374     1445.4682    20180   12.21%
Elapsed time = 19.92 sec. (10368.19 ticks, tree = 11.35 MB, solutions = 17)
   3133   822     1322.9377     4     1288.2374     1445.4682    20085   12.21%
   3920  1198     1290.8145     9     1288.2374     1445.4682    24532   12.21%
   4747  1462        cutoff           1288.2374     1445.4682    27193   12.21%

Performing restart 1

Repeating presolve.
Tried aggregator 5 times.
MIP Presolve eliminated 14006 rows and 10449 columns.
MIP Presolve modified 56395 coefficients.
Aggregator did 416 substitutions.
Reduced MIP has 39447 rows, 34885 columns, and 107181 nonzeros.
Reduced MIP has 13414 binaries, 0 generals, 0 SOSs, and 0 indicators.
Presolve time = 0.41 sec. (425.81 ticks)
Tried aggregator 4 times.
MIP Presolve eliminated 7830 rows and 7177 columns.
MIP Presolve modified 19330 coefficients.
Aggregator did 57 substitutions.
Reduced MIP has 31560 rows, 27649 columns, and 85979 nonzeros.
Reduced MIP has 10559 binaries, 0 generals, 0 SOSs, and 0 indicators.
Presolve time = 0.09 sec. (113.14 ticks)
Tried aggregator 3 times.
MIP Presolve eliminated 334 rows and 314 columns.
MIP Presolve modified 11192 coefficients.
Aggregator did 12 substitutions.
Reduced MIP has 31214 rows, 27323 columns, and 84969 nonzeros.
Reduced MIP has 10420 binaries, 0 generals, 0 SOSs, and 0 indicators.
Presolve time = 0.11 sec. (104.18 ticks)
Represolve time = 1.23 sec. (1042.26 ticks)
   5262     0     1467.4630   174     1288.2374     Cuts: 161    43881   12.21%
   5262     0     1445.4682   174     1288.2374      Cuts: 81    43945   12.21%
   5262     0     1445.4682   174     1288.2374      Cuts: 52    43979   12.21%
*  5262+    0                         1288.2374     1445.4682            12.21%
   5262     0     1445.4682   174     1288.2374      Cuts: 26    44019   12.21%
   5262     0     1445.4682   174     1288.2374      Cuts: 21    44048   12.21%
   5262     0     1445.4682   174     1288.2374      Cuts: 43    44058   12.21%
   5262     0     1445.4682   174     1288.2374      Cuts: 33    44068   12.21%
   5262    18     1322.9377     3     1288.2374     1445.4682    44309   12.21%
   5397    14     1410.7678     2     1288.2374     1425.0228    44332   10.62%
   5476    33     1445.4682     9     1288.2374     1425.0228    45450   10.62%

Cover cuts applied:  1
Implied bound cuts applied:  1
Flow cuts applied:  16
Mixed integer rounding cuts applied:  13
Gomory fractional cuts applied:  70

Root node processing (before b&c):
  Real time             =    5.34 sec. (7590.56 ticks)
Parallel b&c, 16 threads:
  Real time             =   35.81 sec. (14923.81 ticks)
  Sync time (average)   =    2.73 sec.
  Wait time (average)   =    0.05 sec.
                          ------------
Total (root+branch&cut) =   41.16 sec. (22514.36 ticks)

Solution pool: 19 solutions saved.

MIP - Integer optimal, tolerance (0.05/1e-06):  Objective =  1.2882373679e+03
Current MIP best bound =  1.3346409749e+03 (gap = 46.4036, 3.60%)
Solution time =   41.16 sec.  Iterations = 46981  Nodes = 5525 (73)
Deterministic time = 22514.67 ticks  (547.06 ticks/sec)

CPLEX> Incumbent solution written to file 'C:\Users\wenmi\Desktop\competitiveMPEC\logs\tmpag_zmprb.cplex.sol'.
CPLEX> Exporting results... 
